N = 11;
H = 6;
T = 2;

avail = array3d(1..N, 1..H, 1..T, [3, 1, 1, 7, 4, 4, 5, 9, 6, 5, 0, 0, 6, 8, 8, 9, 3, 2, 6, 5, 7, 3, 7, 8, 8, 8, 7, 9, 2, 3, 8, 10, 0, 1, 3, 10, 0, 0, 3, 3, 6, 5, 2, 1, 0, 8, 4, 7, 9, 1, 7, 9, 9, 7, 1, 6, 10, 3, 6, 4, 1, 3, 8, 6, 10, 7, 3, 4, 2, 1, 0, 8, 0, 1, 2, 4, 6, 0, 6, 4, 8, 3, 8, 7, 5, 2, 6, 5, 10, 9, 10, 9, 6, 8, 8, 4, 7, 1, 9, 1, 6, 3, 7, 0, 2, 8, 6, 1, 1, 7, 3, 4, 9, 5, 8, 2, 2, 1, 9, 10, 0, 3, 10, 0, 6, 8, 2, 0, 3, 5, 4, 1]);

r = array2d(1..H, 1..T, [4, 4, 4, 4, 3, 1, 3, 4, 5, 2, 5, 4]);
